 ANIMSTEPS   7
 CRYSTAL 
 PRIMVEC 
  6.3501265308  0.0000000000  0.0000000000
  0.0000000000  3.1750632654  0.0000000000
  0.0000000000  0.0000000000  3.1750632654
 PRIMCOORD   1
    3  1
 H   -2.7910280766    0.0000000000    0.0000000000    0.0000313676    0.0000000000    0.0000000000
 H    0.0000000000    0.0000000000    0.0000000000    0.0000000000    0.0000000000    0.0000000000
 H    0.7888640632    0.0000000000    0.0000000000   -0.0004528236    0.0000000000    0.0000000000
 PRIMCOORD   2
    3  1
 H   -2.0891380532    0.0000000000    0.0000000000   -0.0037917390    0.0000000000    0.0000000000
 H    0.0000000000    0.0000000000    0.0000000000    0.0000000000    0.0000000000    0.0000000000
 H    0.7909725329    0.0000000000    0.0000000000    0.0010327596    0.0000000000    0.0000000000
 PRIMCOORD   3
    3  1
 H   -1.4771427423    0.0000000000    0.0000000000   -0.0102522345    0.0000000000    0.0000000000
 H    0.0000000000    0.0000000000    0.0000000000    0.0000000000    0.0000000000    0.0000000000
 H    0.8247521021    0.0000000000    0.0000000000   -0.0068877644    0.0000000000    0.0000000000
 PRIMCOORD   4
    3  1
 H   -1.0033573886    0.0000000000    0.0000000000    0.0020696012    0.0000000000    0.0000000000
 H    0.0000000000    0.0000000000    0.0000000000    0.0000000000    0.0000000000    0.0000000000
 H    1.0033591629    0.0000000000    0.0000000000   -0.0020696012    0.0000000000    0.0000000000
 PRIMCOORD   5
    3  1
 H   -0.8247517628    0.0000000000    0.0000000000    0.0068877251    0.0000000000    0.0000000000
 H    0.0000000000    0.0000000000    0.0000000000   -0.0000000000    0.0000000000    0.0000000000
 H    1.4771454908    0.0000000000    0.0000000000    0.0102522374    0.0000000000    0.0000000000
 PRIMCOORD   6
    3  1
 H   -0.7909725175    0.0000000000    0.0000000000   -0.0010327357    0.0000000000    0.0000000000
 H    0.0000000000    0.0000000000    0.0000000000   -0.0000000000    0.0000000000    0.0000000000
 H    2.0891413767    0.0000000000    0.0000000000    0.0037917014    0.0000000000    0.0000000000
 PRIMCOORD   7
    3  1
 H   -0.7888641151    0.0000000000    0.0000000000    0.0004465976    0.0000000000    0.0000000000
 H    0.0000000000    0.0000000000    0.0000000000   -0.0000000000    0.0000000000    0.0000000000
 H    2.7910312925    0.0000000000    0.0000000000   -0.0000283988    0.0000000000    0.0000000000
