    3

 H   -2.7910280766    0.0000000000    0.0000000000
 H    0.0000000000    0.0000000000    0.0000000000
 H    0.7888640632    0.0000000000    0.0000000000
    3

 H   -2.0891380532    0.0000000000    0.0000000000
 H    0.0000000000    0.0000000000    0.0000000000
 H    0.7909725329    0.0000000000    0.0000000000
    3

 H   -1.4771427423    0.0000000000    0.0000000000
 H    0.0000000000    0.0000000000    0.0000000000
 H    0.8247521021    0.0000000000    0.0000000000
    3

 H   -1.0033573886    0.0000000000    0.0000000000
 H    0.0000000000    0.0000000000    0.0000000000
 H    1.0033591629    0.0000000000    0.0000000000
    3

 H   -0.8247517628    0.0000000000    0.0000000000
 H    0.0000000000    0.0000000000    0.0000000000
 H    1.4771454908    0.0000000000    0.0000000000
    3

 H   -0.7909725175    0.0000000000    0.0000000000
 H    0.0000000000    0.0000000000    0.0000000000
 H    2.0891413767    0.0000000000    0.0000000000
    3

 H   -0.7888641151    0.0000000000    0.0000000000
 H    0.0000000000    0.0000000000    0.0000000000
 H    2.7910312925    0.0000000000    0.0000000000
