 ANIMSTEPS   7
 CRYSTAL 
 PRIMVEC 
  6.3501265308  0.0000000000  0.0000000000
  0.0000000000  3.1750632654  0.0000000000
  0.0000000000  0.0000000000  3.1750632654
 PRIMCOORD   1
    3  1
 H   -2.7910280766    0.0000000000    0.0000000000    0.0000313676    0.0000000000    0.0000000000
 H    0.0000000000    0.0000000000    0.0000000000    0.0000000000    0.0000000000    0.0000000000
 H    0.7888640632    0.0000000000    0.0000000000   -0.0004528236    0.0000000000    0.0000000000
 PRIMCOORD   2
    3  1
 H   -2.0827128253    0.0000000000    0.0000000000   -0.0038338036    0.0000000000    0.0000000000
 H    0.0000000000    0.0000000000    0.0000000000    0.0000000000    0.0000000000    0.0000000000
 H    0.7914426737    0.0000000000    0.0000000000    0.0006279292    0.0000000000    0.0000000000
 PRIMCOORD   3
    3  1
 H   -1.4698992412    0.0000000000    0.0000000000   -0.0107056758    0.0000000000    0.0000000000
 H    0.0000000000    0.0000000000    0.0000000000    0.0000000000    0.0000000000    0.0000000000
 H    0.8196143104    0.0000000000    0.0000000000   -0.0022822770    0.0000000000    0.0000000000
 PRIMCOORD   4
    3  1
 H   -0.9932990915    0.0000000000    0.0000000000   -0.0021349430    0.0000000000    0.0000000000
 H    0.0000000000    0.0000000000    0.0000000000    0.0000000000    0.0000000000    0.0000000000
 H    0.9933009017    0.0000000000    0.0000000000    0.0021349430    0.0000000000    0.0000000000
 PRIMCOORD   5
    3  1
 H   -0.8196140078    0.0000000000    0.0000000000    0.0022822623    0.0000000000    0.0000000000
 H    0.0000000000    0.0000000000    0.0000000000   -0.0000000000    0.0000000000    0.0000000000
 H    1.4699019773    0.0000000000    0.0000000000    0.0107056706    0.0000000000    0.0000000000
 PRIMCOORD   6
    3  1
 H   -0.7914426622    0.0000000000    0.0000000000   -0.0006279016    0.0000000000    0.0000000000
 H    0.0000000000    0.0000000000    0.0000000000   -0.0000000000    0.0000000000    0.0000000000
 H    2.0827161134    0.0000000000    0.0000000000    0.0038337669    0.0000000000    0.0000000000
 PRIMCOORD   7
    3  1
 H   -0.7888641151    0.0000000000    0.0000000000    0.0004465976    0.0000000000    0.0000000000
 H    0.0000000000    0.0000000000    0.0000000000   -0.0000000000    0.0000000000    0.0000000000
 H    2.7910312925    0.0000000000    0.0000000000   -0.0000283988    0.0000000000    0.0000000000
