    3

 H   -2.7910280766    0.0000000000    0.0000000000
 H    0.0000000000    0.0000000000    0.0000000000
 H    0.7888640632    0.0000000000    0.0000000000
    3

 H   -2.0827128253    0.0000000000    0.0000000000
 H    0.0000000000    0.0000000000    0.0000000000
 H    0.7914426737    0.0000000000    0.0000000000
    3

 H   -1.4698992412    0.0000000000    0.0000000000
 H    0.0000000000    0.0000000000    0.0000000000
 H    0.8196143104    0.0000000000    0.0000000000
    3

 H   -0.9932990915    0.0000000000    0.0000000000
 H    0.0000000000    0.0000000000    0.0000000000
 H    0.9933009017    0.0000000000    0.0000000000
    3

 H   -0.8196140078    0.0000000000    0.0000000000
 H    0.0000000000    0.0000000000    0.0000000000
 H    1.4699019773    0.0000000000    0.0000000000
    3

 H   -0.7914426622    0.0000000000    0.0000000000
 H    0.0000000000    0.0000000000    0.0000000000
 H    2.0827161134    0.0000000000    0.0000000000
    3

 H   -0.7888641151    0.0000000000    0.0000000000
 H    0.0000000000    0.0000000000    0.0000000000
 H    2.7910312925    0.0000000000    0.0000000000
